30 239 5
0 1 1
0 2 1
0 3 1
0 7 1
0 8 1
0 10 1
0 11 1
0 14 1
0 16 1
0 17 1
0 20 1
0 22 1
0 24 1
0 25 1
0 26 1
0 29 1
1 2 1
1 3 1
1 5 1
1 7 1
1 9 1
1 10 1
1 15 1
1 16 1
1 18 1
1 20 1
1 21 1
1 24 1
1 25 1
1 26 1
1 28 1
1 29 1
2 3 1
2 4 1
2 5 1
2 6 1
2 9 1
2 10 1
2 11 1
2 12 1
2 14 1
2 15 1
2 17 1
2 21 1
2 22 1
2 23 1
2 24 1
2 25 1
2 26 1
2 27 1
2 29 1
3 4 1
3 5 1
3 8 1
3 10 1
3 12 1
3 13 1
3 14 1
3 15 1
3 19 1
3 20 1
3 21 1
3 22 1
3 23 1
3 24 1
3 27 1
3 28 1
3 29 1
4 6 1
4 8 1
4 12 1
4 13 1
4 16 1
4 17 1
4 18 1
4 25 1
4 27 1
4 28 1
5 6 1
5 7 1
5 10 1
5 12 1
5 13 1
5 14 1
5 16 1
5 17 1
5 18 1
5 19 1
5 20 1
5 22 1
5 23 1
5 27 1
6 10 1
6 16 1
6 19 1
6 24 1
6 26 1
6 29 1
7 10 1
7 11 1
7 12 1
7 13 1
7 15 1
7 21 1
7 24 1
7 28 1
7 29 1
8 9 1
8 10 1
8 11 1
8 13 1
8 14 1
8 15 1
8 16 1
8 19 1
8 22 1
8 23 1
8 24 1
8 28 1
9 10 1
9 11 1
9 12 1
9 13 1
9 15 1
9 18 1
9 19 1
9 20 1
9 22 1
9 23 1
9 24 1
9 25 1
9 26 1
9 28 1
10 11 1
10 12 1
10 13 1
10 15 1
10 18 1
10 23 1
10 24 1
10 25 1
10 27 1
11 13 1
11 14 1
11 15 1
11 17 1
11 20 1
11 21 1
11 22 1
11 23 1
11 24 1
11 26 1
12 13 1
12 16 1
12 17 1
12 18 1
12 19 1
12 20 1
12 21 1
12 25 1
12 26 1
12 27 1
13 15 1
13 18 1
13 19 1
13 20 1
13 22 1
13 24 1
13 25 1
13 27 1
13 28 1
14 15 1
14 16 1
14 17 1
14 18 1
14 19 1
14 21 1
14 24 1
14 25 1
14 27 1
15 17 1
15 21 1
15 22 1
15 24 1
15 25 1
15 26 1
15 28 1
16 18 1
16 19 1
16 20 1
16 21 1
16 22 1
16 24 1
16 28 1
16 29 1
17 20 1
17 21 1
17 22 1
17 23 1
17 24 1
17 27 1
18 21 1
18 24 1
18 26 1
18 28 1
18 29 1
19 21 1
19 22 1
19 24 1
19 25 1
19 26 1
19 28 1
19 29 1
20 21 1
20 23 1
20 25 1
20 26 1
20 28 1
21 22 1
21 25 1
21 28 1
21 29 1
22 23 1
22 24 1
22 26 1
22 27 1
22 29 1
23 24 1
23 26 1
23 27 1
23 29 1
24 26 1
24 29 1
25 27 1
25 28 1
25 29 1
26 27 1
26 28 1
28 29 1
5 12 18 21 27